problems/csplib-prob056/sonet-models/noch/O2/minion/model_6_1-s3ring05-solution000001.solution
language Essence 1.3

letting network be
        mset({1, 2, 3, 4, 5}, {1, 2, 3, 4, 5}, {1, 2, 3, 4, 5}, {1, 2, 3, 4, 10}, {1, 2, 6, 11, 12}, {3, 6, 8, 9, 11},
             {5, 8, 10, 12, 13})
$ Visualisation for network
$  1  2  3  4  5
$  1  2  3  4  5
$  1  2  3  4  5
$  1  2  3  4 10
$  1  2  6 11 12
$  3  6  8  9 11
$  5  8 10 12 13

